Instance0
Gap
100.00%
100.00%
75.42%
73.26%
63.89%
57.35%
56.88%
54.10%
53.48%
53.39%
52.26%
51.95%
50.90%
50.53%
49.07%
48.38%
41.15%
39.25%
38.64%
37.98%
37.25%
34.97%
33.45%
32.41%
31.85%
25.34%
25.06%
22.56%
21.84%
21.49%
21.16%
20.86%
20.77%
20.63%
17.72%
17.52%
17.43%
16.90%
16.81%
16.56%
16.38%
16.30%
16.29%
16.27%
16.20%
CPXPARAM_MIP_Cuts_LiftProjGomory 30
Instance1
CPXPARAM_MIP_Cuts_LiftProjGomory 0
Instance2
Gap
100.00%
100.00%
100.00%
99.28%
95.35%
76.76%
71.95%
55.83%
51.71%
51.00%
50.38%
47.33%
45.99%
43.78%
41.44%
40.24%
39.44%
37.47%
36.72%
36.33%
35.58%
35.58%
34.95%
34.31%
33.23%
32.41%
32.41%
31.20%
30.01%
30.01%
29.68%
29.68%
29.36%
28.83%
28.83%
28.69%
28.29%
27.81%
25.00%
24.41%
24.20%
23.37%
23.33%
23.08%
22.87%
22.78%
22.55%
22.40%
22.36%
22.28%
22.26%
22.23%
22.14%
22.04%
21.94%
21.90%
21.89%
12.58%
CPXPARAM_MIP_Cuts_LiftProjGomory 33
Instance3
CPXPARAM_MIP_Cuts_LiftProjGomory 0
Instance4
Gap
100.00%
100.00%
68.57%
63.75%
58.92%
49.70%
48.59%
48.58%
45.69%
44.24%
42.22%
40.34%
39.68%
39.27%
38.66%
32.16%
31.67%
31.04%
30.11%
29.92%
20.05%
18.65%
17.10%
16.89%
14.41%
14.36%
14.08%
13.68%
13.60%
13.45%
13.33%
4.61%
4.56%
3.52%
3.46%
3.26%
3.22%
3.13%
3.08%
3.01%
2.99%
2.96%
2.96%
2.96%
1.68%
0.48%
0.36%
0.26%
0
CPXPARAM_MIP_Cuts_LiftProjGomory 1
Instance5
CPXPARAM_MIP_Cuts_LiftProjGomory 0
Instance6
Gap
100.00%
100.00%
99.62%
99.49%
93.80%
83.36%
78.00%
74.37%
73.26%
22.05%
19.55%
10.79%
8.00%
6.84%
5.87%
5.28%
4.86%
4.64%
4.36%
4.35%
4.30%
3.89%
3.70%
2.01%
1.08%
0.26%
0.20%
0.20%
0
CPXPARAM_MIP_Cuts_LiftProjGomory 3
Instance7
CPXPARAM_MIP_Cuts_LiftProjGomory 0
Instance8
Gap
100.00%
100.00%
100.00%
76.86%
72.59%
68.63%
67.62%
62.36%
60.84%
60.36%
59.36%
58.43%
57.86%
56.92%
54.44%
52.90%
51.66%
50.60%
49.57%
48.85%
47.73%
46.91%
45.91%
44.73%
44.15%
43.32%
42.31%
41.67%
41.39%
34.03%
33.81%
32.03%
31.52%
31.51%
30.75%
29.79%
29.37%
28.14%
20.58%
19.96%
19.50%
14.66%
14.50%
13.65%
13.26%
12.73%
12.44%
11.90%
11.58%
10.86%
10.75%
10.65%
10.57%
10.19%
10.09%
9.95%
9.71%
9.62%
9.61%
9.43%
9.33%
9.32%
9.32%
9.31%
CPXPARAM_MIP_Cuts_LiftProjGomory 31
Instance9
CPXPARAM_MIP_Cuts_LiftProjGomory 0
Instance10
Gap
100.00%
100.00%
100.00%
99.40%
99.04%
89.53%
74.35%
73.88%
73.64%
71.47%
70.90%
69.21%
69.12%
67.66%
61.82%
60.29%
60.15%
57.69%
44.80%
43.93%
42.19%
40.87%
39.62%
38.77%
37.78%
37.39%
36.60%
36.47%
36.05%
35.78%
35.08%
34.63%
34.29%
33.83%
33.66%
33.44%
33.06%
32.73%
32.32%
31.88%
31.71%
31.56%
31.15%
30.82%
30.08%
30.04%
29.91%
29.63%
29.48%
29.35%
29.22%
28.94%
28.74%
28.56%
28.42%
28.39%
28.32%
28.22%
28.11%
28.03%
28.00%
25.96%
CPXPARAM_MIP_Cuts_LiftProjGomory 36
Instance11
CPXPARAM_MIP_Cuts_LiftProjGomory 0
Instance12
Gap
100.00%
100.00%
69.98%
65.46%
61.38%
61.34%
58.04%
54.53%
48.10%
46.27%
44.71%
40.44%
38.14%
29.27%
28.06%
27.32%
25.96%
24.24%
22.89%
19.79%
18.84%
18.05%
17.54%
14.11%
13.36%
8.22%
8.09%
8.06%
7.98%
7.92%
7.72%
7.37%
7.14%
6.90%
6.34%
6.08%
6.04%
5.98%
5.82%
5.69%
5.48%
5.41%
4.86%
4.60%
4.47%
4.28%
4.15%
4.11%
3.97%
3.93%
3.90%
1.74%
1.74%
0.57%
0.22%
0.22%
0.20%
CPXPARAM_MIP_Cuts_LiftProjGomory 6
Instance13
CPXPARAM_MIP_Cuts_LiftProjGomory 2
Instance14
Gap
100.00%
100.00%
100.00%
99.99%
94.79%
92.81%
92.23%
87.78%
85.81%
79.81%
65.80%
60.43%
59.31%
52.91%
50.16%
46.65%
44.07%
36.96%
36.91%
34.49%
33.89%
32.58%
29.82%
27.33%
26.96%
26.29%
25.92%
25.57%
24.79%
24.65%
24.53%
23.10%
22.19%
21.77%
21.50%
21.43%
20.44%
20.26%
19.79%
18.86%
18.06%
17.84%
17.60%
17.48%
17.32%
17.22%
16.98%
16.38%
16.26%
16.22%
16.11%
16.11%
16.02%
15.88%
15.25%
15.20%
13.29%
13.14%
13.03%
12.54%
12.41%
11.92%
11.87%
11.84%
11.79%
10.32%
8.54%
CPXPARAM_MIP_Cuts_LiftProjGomory 31
Instance15
CPXPARAM_MIP_Cuts_LiftProjGomory 0
Instance16
Gap
100.00%
100.00%
59.21%
53.34%
46.02%
44.57%
41.66%
41.34%
40.57%
40.34%
39.58%
39.30%
39.04%
38.73%
38.56%
38.20%
28.39%
28.19%
20.75%
20.29%
19.60%
19.46%
19.32%
18.85%
18.66%
18.40%
18.37%
17.94%
17.57%
17.19%
16.79%
16.54%
15.68%
15.47%
15.33%
14.95%
14.80%
10.51%
10.42%
10.32%
10.25%
10.22%
10.13%
10.10%
10.05%
CPXPARAM_MIP_Cuts_LiftProjGomory 28
Instance17
CPXPARAM_MIP_Cuts_LiftProjGomory 0
Instance18
Gap
100.00%
100.00%
100.00%
99.37%
99.21%
92.48%
89.82%
88.74%
83.10%
78.27%
75.38%
74.52%
72.50%
67.36%
66.00%
65.72%
59.49%
58.10%
51.58%
50.69%
49.35%
49.25%
48.52%
48.10%
47.94%
47.21%
46.43%
43.73%
43.48%
41.47%
40.90%
39.86%
38.81%
38.32%
38.07%
36.24%
36.07%
33.11%
32.61%
31.79%
31.39%
30.67%
30.06%
29.42%
29.16%
28.88%
28.56%
28.34%
28.24%
27.94%
27.69%
26.84%
25.90%
25.11%
24.88%
24.68%
24.49%
24.27%
23.92%
23.90%
21.80%
21.72%
21.68%
21.37%
CPXPARAM_MIP_Cuts_LiftProjGomory 35
Instance19
CPXPARAM_MIP_Cuts_LiftProjGomory 0
Instance20
Gap
100.00%
100.00%
62.81%
59.89%
50.13%
43.42%
43.19%
40.51%
37.67%
37.40%
36.43%
34.63%
34.34%
33.02%
32.24%
32.13%
27.57%
25.43%
21.72%
21.28%
21.22%
19.84%
18.19%
17.65%
17.55%
17.23%
16.76%
3.99%
3.86%
3.58%
3.45%
3.27%
2.29%
2.18%
2.15%
2.11%
2.02%
2.00%
1.94%
1.50%
1.38%
1.32%
1.28%
1.22%
1.19%
1.19%
0.46%
0.38%
0.38%
0.21%
0.21%
0.09%
0.05%
0.03%
0
CPXPARAM_MIP_Cuts_LiftProjGomory 5
Instance21
CPXPARAM_MIP_Cuts_LiftProjGomory 1
Instance22
Gap
100.00%
100.00%
99.97%
99.93%
94.52%
92.15%
90.03%
81.87%
80.17%
74.46%
71.33%
68.58%
64.62%
59.87%
48.79%
46.20%
45.02%
42.32%
40.64%
39.35%
38.12%
37.27%
36.18%
35.39%
33.36%
31.86%
30.31%
29.64%
29.17%
23.87%
23.26%
14.90%
13.66%
13.66%
11.86%
11.29%
10.38%
10.00%
9.90%
9.73%
9.53%
8.34%
7.94%
7.91%
7.80%
7.74%
7.74%
7.07%
CPXPARAM_MIP_Cuts_LiftProjGomory 34
Instance23
CPXPARAM_MIP_Cuts_LiftProjGomory 0
Instance24
Gap
100.00%
100.00%
69.71%
64.56%
53.47%
52.82%
50.99%
42.83%
41.41%
37.26%
36.24%
34.23%
33.35%
31.11%
28.74%
26.33%
24.86%
23.36%
22.66%
21.91%
21.69%
21.32%
21.25%
21.03%
14.21%
13.82%
13.56%
13.54%
13.52%
13.45%
13.31%
13.21%
13.10%
12.79%
12.60%
12.38%
12.32%
12.15%
12.08%
11.92%
11.72%
11.66%
11.55%
11.52%
11.48%
CPXPARAM_MIP_Cuts_LiftProjGomory 26
Instance25
CPXPARAM_MIP_Cuts_LiftProjGomory 0
Instance26
Gap
100.00%
100.00%
100.00%
99.35%
99.30%
94.98%
91.55%
90.83%
88.21%
83.65%
82.68%
80.82%
75.57%
73.21%
72.83%
71.65%
69.62%
52.21%
44.75%
43.07%
42.14%
39.95%
38.87%
37.46%
33.99%
32.37%
31.76%
31.60%
30.63%
29.80%
28.51%
25.23%
24.79%
23.98%
23.68%
23.27%
22.88%
22.35%
22.18%
21.83%
21.54%
21.39%
20.86%
20.68%
20.60%
20.57%
20.53%
20.38%
20.30%
19.99%
19.79%
19.61%
19.38%
19.35%
19.33%
12.97%
CPXPARAM_MIP_Cuts_LiftProjGomory 36
Instance27
CPXPARAM_MIP_Cuts_LiftProjGomory 0
Instance28
Gap
100.00%
100.00%
67.25%
61.80%
56.10%
37.91%
31.12%
26.94%
23.59%
22.80%
20.14%
17.78%
16.01%
15.16%
14.49%
11.10%
10.93%
10.87%
10.50%
9.62%
7.37%
6.66%
6.40%
6.19%
6.11%
5.41%
5.24%
5.15%
4.72%
4.27%
3.96%
3.96%
3.91%
3.91%
1.88%
1.88%
1.29%
1.29%
1.29%
1.21%
0.96%
0.84%
0.71%
0.56%
0.51%
0.44%
0.42%
0.42%
0
CPXPARAM_MIP_Cuts_LiftProjGomory 10
Instance29
CPXPARAM_MIP_Cuts_LiftProjGomory 1
Instance30
Gap
100.00%
100.00%
99.71%
99.31%
92.62%
91.73%
86.74%
84.03%
78.96%
68.28%
67.11%
47.04%
42.62%
40.95%
37.46%
37.46%
35.90%
35.08%
30.03%
27.60%
23.74%
23.13%
22.63%
22.52%
21.79%
20.57%
20.03%
19.49%
18.83%
18.83%
17.85%
17.66%
16.59%
16.59%
16.43%
16.29%
16.25%
15.93%
15.37%
15.05%
14.09%
13.96%
13.95%
11.78%
CPXPARAM_MIP_Cuts_LiftProjGomory 23
Instance31
CPXPARAM_MIP_Cuts_LiftProjGomory 0
Instance32
Gap
100.00%
100.00%
60.68%
59.49%
51.21%
33.97%
33.72%
32.86%
31.17%
30.76%
21.91%
20.63%
20.24%
20.02%
19.56%
19.44%
19.33%
18.49%
18.23%
16.20%
15.71%
15.36%
15.13%
14.67%
14.14%
13.93%
13.77%
13.66%
13.57%
12.61%
12.43%
11.80%
11.55%
11.49%
11.44%
11.41%
11.30%
11.26%
11.23%
11.22%
11.22%
11.21%
CPXPARAM_MIP_Cuts_LiftProjGomory 27
Instance33
CPXPARAM_MIP_Cuts_LiftProjGomory 1
Instance34
Gap
100.00%
100.00%
100.00%
99.43%
99.32%
94.30%
91.08%
89.50%
88.26%
79.10%
77.51%
73.05%
69.30%
66.50%
63.46%
62.33%
61.19%
57.68%
56.47%
55.06%
54.35%
52.65%
50.67%
50.01%
44.88%
44.37%
43.80%
43.48%
42.03%
41.43%
38.68%
37.62%
36.47%
35.92%
34.94%
33.59%
32.83%
32.65%
32.32%
31.25%
31.07%
30.40%
30.14%
29.60%
29.10%
28.50%
28.31%
28.19%
28.01%
27.61%
27.44%
27.33%
27.08%
26.81%
26.77%
26.70%
CPXPARAM_MIP_Cuts_LiftProjGomory 38
Instance35
CPXPARAM_MIP_Cuts_LiftProjGomory 0
Instance36
Gap
100.00%
100.00%
57.84%
51.78%
44.78%
43.92%
43.34%
36.95%
36.40%
35.62%
35.27%
34.71%
33.30%
32.25%
31.99%
29.60%
22.02%
21.09%
19.33%
19.06%
18.84%
18.29%
17.61%
17.53%
17.39%
16.93%
16.44%
16.16%
15.18%
14.88%
14.51%
14.28%
13.90%
13.55%
13.45%
12.73%
12.61%
12.20%
12.02%
11.95%
11.65%
11.53%
5.86%
5.81%
5.76%
5.61%
5.24%
5.22%
5.11%
4.74%
4.74%
4.71%
2.45%
1.26%
CPXPARAM_MIP_Cuts_LiftProjGomory 31
Instance37
CPXPARAM_MIP_Cuts_LiftProjGomory 0
Instance38
Gap
100.00%
100.00%
99.54%
99.29%
94.21%
89.58%
87.12%
86.91%
78.93%
68.41%
62.71%
52.42%
48.90%
46.33%
43.28%
41.23%
37.12%
36.23%
35.81%
34.57%
32.70%
31.76%
30.62%
30.13%
29.57%
29.12%
28.06%
28.06%
27.87%
21.13%
21.01%
19.80%
19.58%
19.34%
19.06%
18.41%
18.20%
17.06%
16.58%
16.49%
15.61%
14.74%
14.13%
13.67%
13.42%
13.07%
12.37%
11.72%
10.91%
9.40%
8.77%
7.77%
7.30%
6.74%
6.73%
6.58%
6.44%
6.25%
6.08%
5.74%
5.13%
5.07%
5.02%
4.94%
4.69%
4.66%
4.52%
4.22%
4.21%
4.21%
0.01%
CPXPARAM_MIP_Cuts_LiftProjGomory 25
Instance39
CPXPARAM_MIP_Cuts_LiftProjGomory 0
Instance40
Gap
100.00%
100.00%
89.26%
78.36%
62.07%
57.12%
55.15%
54.05%
53.15%
50.55%
49.54%
42.88%
40.83%
31.83%
29.98%
26.77%
25.87%
25.14%
23.93%
23.03%
20.78%
19.61%
19.06%
19.06%
16.70%
15.67%
15.29%
14.72%
14.20%
13.56%
13.03%
13.03%
12.81%
12.53%
11.94%
11.64%
11.49%
11.00%
10.89%
10.79%
10.75%
10.69%
10.58%
10.17%
10.10%
10.06%
9.62%
9.55%
9.40%
9.24%
9.01%
8.91%
8.88%
8.85%
8.85%
8.64%
CPXPARAM_MIP_Cuts_LiftProjGomory 30
Instance41
CPXPARAM_MIP_Cuts_LiftProjGomory 0
Instance42
Gap
100.00%
100.00%
100.00%
99.52%
98.54%
92.06%
89.92%
86.24%
85.17%
79.84%
79.50%
69.82%
68.78%
67.49%
66.48%
64.60%
64.02%
60.33%
58.94%
57.15%
54.67%
53.09%
52.10%
51.06%
48.53%
47.77%
46.28%
44.26%
42.50%
40.76%
40.76%
39.96%
38.93%
38.60%
37.81%
35.98%
35.74%
35.18%
34.62%
34.41%
33.91%
33.77%
33.57%
33.00%
32.34%
31.88%
31.56%
31.42%
30.78%
30.69%
30.64%
30.53%
30.22%
30.02%
30.02%
30.02%
30.01%
30.01%
25.43%
CPXPARAM_MIP_Cuts_LiftProjGomory 40
Instance43
CPXPARAM_MIP_Cuts_LiftProjGomory 0
Instance44
Gap
100.00%
100.00%
88.62%
70.72%
54.96%
48.72%
47.91%
38.68%
30.36%
30.14%
21.80%
16.46%
15.21%
14.26%
13.86%
11.41%
11.13%
10.96%
7.73%
7.46%
6.28%
5.39%
4.56%
4.17%
3.74%
2.80%
2.59%
2.50%
2.43%
2.35%
2.23%
1.89%
1.79%
1.76%
1.75%
1.73%
1.73%
0.55%
0.50%
0.48%
0.47%
0.38%
0.27%
0.27%
0.27%
0.06%
CPXPARAM_MIP_Cuts_LiftProjGomory 8
Instance45
CPXPARAM_MIP_Cuts_LiftProjGomory 1
Instance46
Gap
100.00%
100.00%
99.78%
99.46%
92.87%
82.71%
80.19%
44.05%
40.56%
39.60%
33.42%
31.43%
26.72%
16.25%
14.92%
13.81%
13.53%
12.58%
11.95%
10.64%
8.31%
8.11%
7.77%
7.61%
6.92%
6.85%
6.59%
6.18%
6.11%
5.91%
5.67%
5.56%
5.47%
5.47%
5.19%
5.18%
5.18%
3.26%
3.26%
2.98%
CPXPARAM_MIP_Cuts_LiftProjGomory 11
Instance47
CPXPARAM_MIP_Cuts_LiftProjGomory 2
Instance48
Gap
100.00%
100.00%
84.00%
78.89%
67.07%
63.36%
62.53%
61.19%
56.39%
54.80%
52.11%
49.88%
49.52%
49.24%
47.82%
46.30%
46.14%
45.10%
43.70%
42.63%
41.60%
36.74%
34.80%
31.18%
30.86%
30.00%
28.27%
26.65%
25.20%
24.80%
16.80%
16.67%
16.47%
15.98%
15.44%
14.75%
14.47%
14.23%
6.30%
6.24%
5.72%
5.35%
5.15%
5.15%
4.74%
4.63%
4.44%
4.39%
3.63%
3.50%
3.47%
3.47%
3.40%
3.37%
3.05%
CPXPARAM_MIP_Cuts_LiftProjGomory 29
Instance49
CPXPARAM_MIP_Cuts_LiftProjGomory 1
Instance50
Gap
100.00%
100.00%
99.59%
99.18%
94.97%
82.92%
77.64%
76.09%
74.71%
74.61%
73.49%
73.33%
72.30%
70.53%
68.74%
68.06%
67.52%
67.37%
66.78%
59.77%
57.53%
57.19%
56.87%
56.27%
54.52%
54.01%
53.63%
52.68%
52.41%
51.99%
51.89%
51.81%
40.26%
39.22%
39.05%
38.84%
38.61%
38.53%
38.40%
38.29%
38.29%
38.12%
38.07%
38.03%
37.79%
37.53%
37.34%
37.31%
36.72%
36.10%
36.01%
35.89%
35.46%
35.08%
35.01%
34.91%
34.83%
34.59%
34.55%
34.40%
34.26%
33.99%
33.69%
33.44%
33.43%
32.23%
27.68%
CPXPARAM_MIP_Cuts_LiftProjGomory 31
Instance51
CPXPARAM_MIP_Cuts_LiftProjGomory 0
Instance52
Gap
100.00%
100.00%
84.48%
68.92%
56.67%
45.68%
36.37%
26.72%
26.28%
24.91%
21.60%
18.99%
17.13%
15.36%
11.98%
11.03%
10.08%
9.98%
8.53%
8.18%
7.79%
7.55%
6.59%
5.78%
5.49%
4.25%
3.35%
3.17%
2.85%
2.57%
2.56%
2.53%
2.35%
2.11%
1.67%
1.57%
1.50%
1.13%
1.12%
0.96%
0.95%
0.95%
0.01%
CPXPARAM_MIP_Cuts_LiftProjGomory 16
Instance53
CPXPARAM_MIP_Cuts_LiftProjGomory 1
Instance54
Gap
100.00%
100.00%
99.81%
99.61%
97.04%
91.77%
78.97%
77.91%
68.28%
67.22%
39.47%
36.05%
34.87%
31.47%
28.74%
27.61%
27.24%
26.25%
23.32%
23.31%
22.55%
19.07%
18.90%
18.48%
18.44%
17.97%
17.64%
16.08%
15.46%
10.10%
9.70%
7.62%
7.60%
6.83%
6.67%
5.07%
4.39%
4.37%
4.37%
0.81%
0.81%
0
CPXPARAM_MIP_Cuts_LiftProjGomory 2
Instance55
CPXPARAM_MIP_Cuts_LiftProjGomory 1
Instance56
Gap
100.00%
100.00%
100.00%
69.66%
59.24%
56.55%
55.91%
53.75%
51.22%
48.66%
47.79%
40.99%
40.57%
39.37%
38.82%
38.70%
36.11%
23.83%
21.61%
20.98%
20.56%
19.84%
19.21%
16.56%
13.04%
12.48%
11.92%
11.40%
11.27%
10.91%
10.81%
10.65%
10.59%
9.97%
9.78%
9.61%
9.45%
9.29%
6.33%
6.19%
6.00%
5.98%
5.94%
5.85%
5.75%
5.65%
5.52%
5.29%
5.28%
5.21%
CPXPARAM_MIP_Cuts_LiftProjGomory 29
Instance57
CPXPARAM_MIP_Cuts_LiftProjGomory 0
Instance58
Gap
100.00%
100.00%
100.00%
100.00%
94.73%
80.15%
74.99%
69.94%
67.03%
63.82%
61.28%
58.77%
56.69%
54.84%
53.91%
51.78%
49.05%
47.73%
46.39%
44.68%
43.30%
41.65%
39.32%
39.32%
38.02%
37.51%
36.90%
36.28%
35.67%
35.52%
35.15%
34.67%
34.57%
34.12%
33.79%
33.73%
33.61%
33.34%
33.14%
33.06%
31.78%
31.78%
31.05%
30.84%
30.53%
30.53%
30.27%
30.27%
30.08%
30.07%
30.01%
30.00%
30.00%
23.21%
21.34%
20.17%
19.53%
19.12%
19.10%
19.07%
19.07%
19.05%
19.01%
18.99%
18.97%
18.96%
18.94%
18.89%
18.88%
18.67%
CPXPARAM_MIP_Cuts_LiftProjGomory 18
Instance59
CPXPARAM_MIP_Cuts_LiftProjGomory 2
Instance60
Gap
100.00%
100.00%
69.10%
61.90%
52.91%
51.86%
49.35%
47.36%
47.14%
44.91%
42.82%
40.77%
34.75%
31.83%
30.28%
27.61%
21.42%
20.34%
19.66%
18.28%
17.51%
11.28%
10.96%
10.84%
9.70%
9.38%
9.23%
8.22%
7.93%
7.50%
7.18%
7.13%
6.98%
6.77%
6.72%
6.71%
6.63%
6.24%
5.66%
5.59%
3.05%
2.97%
2.33%
2.26%
2.24%
2.15%
CPXPARAM_MIP_Cuts_LiftProjGomory 29
Instance61
CPXPARAM_MIP_Cuts_LiftProjGomory 0
Instance62
Gap
100.00%
100.00%
99.75%
99.32%
88.94%
54.15%
52.72%
48.60%
45.72%
42.24%
27.07%
18.34%
11.20%
6.91%
2.98%
2.72%
1.83%
0.83%
0.83%
0.77%
0.77%
0.62%
CPXPARAM_MIP_Cuts_LiftProjGomory 2
Instance63
CPXPARAM_MIP_Cuts_LiftProjGomory 1
Instance64
Gap
100.00%
100.00%
100.00%
69.77%
63.45%
57.73%
38.30%
37.72%
37.19%
35.82%
32.40%
30.96%
29.47%
28.53%
27.57%
25.72%
24.65%
24.11%
22.50%
22.21%
21.50%
21.16%
20.43%
19.89%
19.21%
18.45%
18.17%
17.89%
17.35%
17.14%
16.24%
16.08%
15.83%
15.05%
14.86%
14.79%
14.72%
14.50%
14.37%
14.23%
14.12%
14.03%
14.01%
13.95%
13.80%
13.55%
13.54%
13.43%
CPXPARAM_MIP_Cuts_LiftProjGomory 36
Instance65
CPXPARAM_MIP_Cuts_LiftProjGomory 0
Instance66
Gap
100.00%
100.00%
100.00%
98.79%
92.07%
70.74%
65.44%
64.27%
60.99%
60.23%
59.22%
57.89%
55.62%
54.78%
52.12%
50.58%
37.73%
36.37%
32.40%
29.58%
26.79%
24.25%
24.00%
23.80%
17.65%
17.19%
16.36%
15.62%
15.12%
14.43%
13.65%
12.84%
12.84%
12.32%
11.98%
11.58%
11.07%
10.84%
9.62%
9.30%
9.26%
8.81%
8.61%
8.21%
8.01%
7.88%
7.83%
7.79%
7.52%
7.47%
7.36%
7.32%
7.30%
6.92%
6.84%
6.81%
4.78%
CPXPARAM_MIP_Cuts_LiftProjGomory 32
Instance67
CPXPARAM_MIP_Cuts_LiftProjGomory 0
Instance68
Gap
100.00%
100.00%
66.38%
51.74%
39.25%
36.54%
35.06%
33.22%
27.87%
26.33%
24.29%
20.85%
19.49%
18.96%
17.01%
16.72%
16.48%
16.28%
16.17%
15.47%
15.33%
15.06%
6.51%
6.41%
6.02%
5.85%
5.78%
5.63%
5.59%
5.26%
5.20%
5.04%
4.69%
4.47%
4.19%
3.97%
2.47%
2.43%
2.38%
2.37%
2.32%
2.25%
2.19%
2.17%
1.67%
1.67%
1.12%
0.98%
0.91%
0.78%
0.76%
0.66%
0.66%
0.64%
0.60%
0.59%
0.49%
CPXPARAM_MIP_Cuts_LiftProjGomory 8
Instance69
CPXPARAM_MIP_Cuts_LiftProjGomory 3
Instance70
Gap
100.00%
100.00%
99.38%
98.77%
88.10%
77.55%
70.40%
35.95%
30.42%
28.39%
23.69%
21.96%
19.52%
17.83%
17.59%
16.70%
16.54%
16.41%
16.23%
15.17%
13.50%
11.25%
9.79%
8.85%
8.82%
8.79%
8.79%
8.75%
8.39%
8.34%
8.34%
6.73%
5.92%
5.66%
5.40%
5.35%
4.00%
3.25%
3.15%
3.05%
3.00%
2.98%
1.84%
1.84%
1.24%
0.76%
0.48%
0.48%
0
CPXPARAM_MIP_Cuts_LiftProjGomory 7
Instance71
CPXPARAM_MIP_Cuts_LiftProjGomory 0
Instance72
Gap
100.00%
100.00%
100.00%
85.27%
82.45%
71.87%
70.06%
65.99%
54.64%
54.21%
53.72%
52.33%
51.31%
49.07%
48.18%
44.74%
42.23%
41.08%
35.54%
33.73%
31.89%
29.56%
28.54%
28.17%
27.70%
27.54%
27.04%
26.06%
25.50%
25.30%
24.70%
22.60%
22.18%
14.77%
14.70%
14.48%
14.21%
14.11%
13.42%
12.87%
12.77%
12.64%
12.36%
11.98%
11.49%
11.32%
10.54%
10.37%
10.25%
10.09%
9.82%
9.78%
9.69%
9.50%
9.47%
9.47%
CPXPARAM_MIP_Cuts_LiftProjGomory 32
Instance73
CPXPARAM_MIP_Cuts_LiftProjGomory 0
Instance74
Gap
100.00%
100.00%
100.00%
100.00%
100.00%
97.18%
88.08%
81.29%
66.48%
59.78%
58.48%
57.11%
56.27%
55.26%
54.56%
52.43%
51.50%
50.44%
48.19%
46.39%
45.20%
44.01%
39.32%
36.59%
35.94%
35.33%
33.64%
32.71%
31.69%
31.30%
30.89%
30.19%
30.10%
29.96%
28.87%
28.73%
28.53%
28.53%
28.22%
28.02%
27.69%
27.05%
26.80%
26.57%
26.49%
26.45%
26.28%
26.07%
25.96%
25.83%
25.78%
25.74%
25.46%
25.37%
25.34%
16.25%
CPXPARAM_MIP_Cuts_LiftProjGomory 35
Instance75
CPXPARAM_MIP_Cuts_LiftProjGomory 0
Instance76
Gap
100.00%
100.00%
78.46%
58.43%
34.01%
32.41%
28.41%
27.79%
27.20%
24.59%
23.00%
19.78%
18.84%
17.64%
14.20%
13.01%
12.14%
11.80%
11.36%
10.48%
9.45%
8.67%
7.13%
6.96%
6.84%
6.39%
5.73%
5.56%
5.30%
5.21%
5.05%
4.93%
4.67%
4.49%
4.25%
4.11%
4.00%
3.15%
3.13%
3.12%
3.10%
CPXPARAM_MIP_Cuts_LiftProjGomory 21
Instance77
CPXPARAM_MIP_Cuts_LiftProjGomory 0
Instance78
Gap
100.00%
100.00%
99.77%
99.55%
94.79%
74.59%
56.86%
52.37%
47.63%
45.90%
31.95%
31.94%
29.62%
27.08%
26.38%
23.48%
22.01%
21.09%
20.94%
20.66%
18.85%
18.19%
15.09%
14.28%
14.02%
13.39%
10.71%
9.88%
8.96%
8.75%
7.66%
6.96%
6.39%
6.38%
5.92%
4.84%
4.60%
4.38%
4.17%
3.96%
3.92%
2.92%
2.70%
2.34%
1.52%
1.12%
1.12%
1.12%
0.48%
0.48%
0.48%
0.48%
0.25%
CPXPARAM_MIP_Cuts_LiftProjGomory 14
Instance79
CPXPARAM_MIP_Cuts_LiftProjGomory 5
